proyfinal/src/viki/013/andrea/andrea-localstore/experimentInOfficeAgust.take6/worker_5/3da5c103-994f-4f57-ad3e-4f6cd0f2d30e.als.cnf.out
Reading from standard input... Use '--help' for help.
============================[ Problem Statistics ]=============================
|                                                                             |
|  Number of variables:         87638                                         |
|  Number of clauses:          161767                                         |
|  Parse time:                   0.03 s                                       |
|                                                                             |
============================[ Search Statistics ]==============================
| Conflicts |          ORIGINAL         |          LEARNT          | Progress |
|           |    Vars  Clauses Literals |    Limit  Clauses Lit/Cl |          |
===============================================================================
|       100 |   62693   106300   265611 |    38976      100     10 | 28.464 % |
|       250 |   62693   106300   265611 |    42874      250     25 | 28.464 % |
|       475 |   62693   106300   265611 |    47161      475     84 | 28.464 % |
|       812 |   62693   106300   265611 |    51877      812    100 | 28.464 % |
|      1318 |   62693   106300   265611 |    57065     1318    159 | 28.464 % |
|      2077 |   62676   106232   265448 |    62772     2076    144 | 28.483 % |
|      3216 |   62676   106232   265448 |    69049     3215    118 | 28.483 % |
|      4924 |   62676   106232   265448 |    75954     4923    112 | 28.483 % |
|      7486 |   62676   106232   265448 |    83549     7485    104 | 28.483 % |
|     11330 |   62676   106232   265448 |    91904    11329    103 | 28.483 % |
|     17096 |   49963    69040   174282 |   101095    16951     87 | 42.989 % |
===============================================================================
restarts              : 63
conflicts             : 17932          (6349 /sec)
decisions             : 56388          (0.00 % random) (19965 /sec)
propagations          : 24868704       (8805172 /sec)
conflict literals     : 1523897        (53.10 % deleted)
Memory used           : 40.14 MB
CPU time              : 2.82433 s

UNSATISFIABLE
